\Problem name: IloCplex

Minimize
 obj: 0.00099 z0.1 + 0.00234 z0.2 + 0.00432 z0.3 + 0.00036 z0.4 + 0.00414 z0.5
      + 0.00306 z0.6 + 0.00171 z0.7 + 0.00252 z0.8 + 0.00306 z0.9
      + 0.00378 z0.10 + 0.0045 z0.11 + 0.00432 z0.12 + 0.00234 z0.13
      + 0.00045 z0.14 + 0.00369 z0.15 + 0.00576 z0.16 + 0.00432 z0.17
      + 0.00099 z1.0 + 0.0027 z1.2 + 0.00513 z1.3 + 0.00108 z1.4 + 0.00441 z1.5
      + 0.00387 z1.6 + 0.0009 z1.7 + 0.00234 z1.8 + 0.00234 z1.9
      + 0.00387 z1.10 + 0.00387 z1.11 + 0.0036 z1.12 + 0.00252 z1.13
      + 0.00063 z1.14 + 0.00432 z1.15 + 0.00495 z1.16 + 0.00477 z1.17
      + 0.00234 z2.0 + 0.0027 z2.1 + 0.00279 z2.3 + 0.00198 z2.4 + 0.00639 z2.5
      + 0.00522 z2.6 + 0.0036 z2.7 + 0.00486 z2.8 + 0.00324 z2.9
      + 0.00171 z2.10 + 0.00657 z2.11 + 0.00423 z2.12 + 0.00054 z2.13
      + 0.00225 z2.14 + 0.0018 z2.15 + 0.00765 z2.16 + 0.00207 z2.17
      + 0.00432 z3.0 + 0.00513 z3.1 + 0.00279 z3.2 + 0.00405 z3.4
      + 0.00846 z3.5 + 0.00729 z3.6 + 0.00594 z3.7 + 0.00684 z3.8
      + 0.00603 z3.9 + 0.00351 z3.10 + 0.00882 z3.11 + 0.00693 z3.12
      + 0.00324 z3.13 + 0.0045 z3.14 + 0.00099 z3.15 + 0.00999 z3.16
      + 0.0018 z3.17 + 0.00036 z4.0 + 0.00108 z4.1 + 0.00198 z4.2
      + 0.00405 z4.3 + 0.00441 z4.5 + 0.00324 z4.6 + 0.00198 z4.7
      + 0.00288 z4.8 + 0.00306 z4.9 + 0.00351 z4.10 + 0.00486 z4.11
      + 0.00432 z4.12 + 0.00207 z4.13 + 0.00054 z4.14 + 0.00333 z4.15
      + 0.00603 z4.16 + 0.00396 z4.17 + 0.00414 z5.0 + 0.00441 z5.1
      + 0.00639 z5.2 + 0.00846 z5.3 + 0.00441 z5.4 + 0.00261 z5.6
      + 0.00414 z5.7 + 0.00243 z5.8 + 0.00657 z5.9 + 0.00792 z5.10
      + 0.00405 z5.11 + 0.00774 z5.12 + 0.00648 z5.13 + 0.0045 z5.14
      + 0.00774 z5.15 + 0.00594 z5.16 + 0.00837 z5.17 + 0.00306 z6.0
      + 0.00387 z6.1 + 0.00522 z6.2 + 0.00729 z6.3 + 0.00324 z6.4
      + 0.00261 z6.5 + 0.00414 z6.7 + 0.00333 z6.8 + 0.00612 z6.9
      + 0.00675 z6.10 + 0.00567 z6.11 + 0.00738 z6.12 + 0.00531 z6.13
      + 0.00351 z6.14 + 0.00657 z6.15 + 0.00738 z6.16 + 0.0072 z6.17
      + 0.00171 z7.0 + 0.0009 z7.1 + 0.0036 z7.2 + 0.00594 z7.3 + 0.00198 z7.4
      + 0.00414 z7.5 + 0.00414 z7.6 + 0.0018 z7.8 + 0.00243 z7.9
      + 0.00477 z7.10 + 0.00306 z7.11 + 0.0036 z7.12 + 0.00342 z7.13
      + 0.00144 z7.14 + 0.00522 z7.15 + 0.00405 z7.16 + 0.00567 z7.17
      + 0.00252 z8.0 + 0.00234 z8.1 + 0.00486 z8.2 + 0.00684 z8.3
      + 0.00288 z8.4 + 0.00243 z8.5 + 0.00333 z8.6 + 0.0018 z8.7 + 0.00423 z8.9
      + 0.00621 z8.10 + 0.00234 z8.11 + 0.0054 z8.12 + 0.00477 z8.13
      + 0.00261 z8.14 + 0.00621 z8.15 + 0.00405 z8.16 + 0.00684 z8.17
      + 0.00306 z9.0 + 0.00234 z9.1 + 0.00324 z9.2 + 0.00603 z9.3
      + 0.00306 z9.4 + 0.00657 z9.5 + 0.00612 z9.6 + 0.00243 z9.7
      + 0.00423 z9.8 + 0.00342 z9.10 + 0.00549 z9.11 + 0.00126 z9.12
      + 0.00279 z9.13 + 0.00261 z9.14 + 0.00504 z9.15 + 0.00648 z9.16
      + 0.00513 z9.17 + 0.00378 z10.0 + 0.00387 z10.1 + 0.00171 z10.2
      + 0.00351 z10.3 + 0.00351 z10.4 + 0.00792 z10.5 + 0.00675 z10.6
      + 0.00477 z10.7 + 0.00621 z10.8 + 0.00342 z10.9 + 0.00774 z10.11
      + 0.00387 z10.12 + 0.00144 z10.13 + 0.0036 z10.14 + 0.00252 z10.15
      + 0.00882 z10.16 + 0.00198 z10.17 + 0.0045 z11.0 + 0.00387 z11.1
      + 0.00657 z11.2 + 0.00882 z11.3 + 0.00486 z11.4 + 0.00405 z11.5
      + 0.00567 z11.6 + 0.00306 z11.7 + 0.00234 z11.8 + 0.00549 z11.9
      + 0.00774 z11.10 + 0.00666 z11.12 + 0.00639 z11.13 + 0.00441 z11.14
      + 0.00819 z11.15 + 0.00189 z11.16 + 0.00864 z11.17 + 0.00432 z12.0
      + 0.0036 z12.1 + 0.00423 z12.2 + 0.00693 z12.3 + 0.00432 z12.4
      + 0.00774 z12.5 + 0.00738 z12.6 + 0.0036 z12.7 + 0.0054 z12.8
      + 0.00126 z12.9 + 0.00387 z12.10 + 0.00666 z12.11 + 0.00369 z12.13
      + 0.00387 z12.14 + 0.00594 z12.15 + 0.00765 z12.16 + 0.00585 z12.17
      + 0.00234 z13.0 + 0.00252 z13.1 + 0.00054 z13.2 + 0.00324 z13.3
      + 0.00207 z13.4 + 0.00648 z13.5 + 0.00531 z13.6 + 0.00342 z13.7
      + 0.00477 z13.8 + 0.00279 z13.9 + 0.00144 z13.10 + 0.00639 z13.11
      + 0.00369 z13.12 + 0.00216 z13.14 + 0.00225 z13.15 + 0.00747 z13.16
      + 0.00234 z13.17 + 0.00045 z14.0 + 0.00063 z14.1 + 0.00225 z14.2
      + 0.0045 z14.3 + 0.00054 z14.4 + 0.0045 z14.5 + 0.00351 z14.6
      + 0.00144 z14.7 + 0.00261 z14.8 + 0.00261 z14.9 + 0.0036 z14.10
      + 0.00441 z14.11 + 0.00387 z14.12 + 0.00216 z14.13 + 0.00378 z14.15
      + 0.00549 z14.16 + 0.00432 z14.17 + 0.00369 z15.0 + 0.00432 z15.1
      + 0.0018 z15.2 + 0.00099 z15.3 + 0.00333 z15.4 + 0.00774 z15.5
      + 0.00657 z15.6 + 0.00522 z15.7 + 0.00621 z15.8 + 0.00504 z15.9
      + 0.00252 z15.10 + 0.00819 z15.11 + 0.00594 z15.12 + 0.00225 z15.13
      + 0.00378 z15.14 + 0.00927 z15.16 + 0.00108 z15.17 + 0.00576 z16.0
      + 0.00495 z16.1 + 0.00765 z16.2 + 0.00999 z16.3 + 0.00603 z16.4
      + 0.00594 z16.5 + 0.00738 z16.6 + 0.00405 z16.7 + 0.00405 z16.8
      + 0.00648 z16.9 + 0.00882 z16.10 + 0.00189 z16.11 + 0.00765 z16.12
      + 0.00747 z16.13 + 0.00549 z16.14 + 0.00927 z16.15 + 0.00972 z16.17
      + 0.00432 z17.0 + 0.00477 z17.1 + 0.00207 z17.2 + 0.0018 z17.3
      + 0.00396 z17.4 + 0.00837 z17.5 + 0.0072 z17.6 + 0.00567 z17.7
      + 0.00684 z17.8 + 0.00513 z17.9 + 0.00198 z17.10 + 0.00864 z17.11
      + 0.00585 z17.12 + 0.00234 z17.13 + 0.00432 z17.14 + 0.00108 z17.15
      + 0.00972 z17.16 + id9807
Subject To
 id9809: x0.0 + x0.1 + x0.2 + x0.3 + x0.4 + x0.5 + x0.6 + x0.7 + x0.8 + x0.9
         + x0.10 + x0.11 + x0.12 + x0.13 + x0.14 + x0.15 + x0.16 + x0.17  = 1
 id9811: x1.0 + x1.1 + x1.2 + x1.3 + x1.4 + x1.5 + x1.6 + x1.7 + x1.8 + x1.9
         + x1.10 + x1.11 + x1.12 + x1.13 + x1.14 + x1.15 + x1.16 + x1.17  = 1
 id9813: x2.0 + x2.1 + x2.2 + x2.3 + x2.4 + x2.5 + x2.6 + x2.7 + x2.8 + x2.9
         + x2.10 + x2.11 + x2.12 + x2.13 + x2.14 + x2.15 + x2.16 + x2.17  = 1
 id9815: x3.0 + x3.1 + x3.2 + x3.3 + x3.4 + x3.5 + x3.6 + x3.7 + x3.8 + x3.9
         + x3.10 + x3.11 + x3.12 + x3.13 + x3.14 + x3.15 + x3.16 + x3.17  = 1
 id9817: x4.0 + x4.1 + x4.2 + x4.3 + x4.4 + x4.5 + x4.6 + x4.7 + x4.8 + x4.9
         + x4.10 + x4.11 + x4.12 + x4.13 + x4.14 + x4.15 + x4.16 + x4.17  = 1
 id9820: z0.1 + z0.2 + z0.3 + z0.4 + z0.5 + z0.6 + z0.7 + z0.8 + z0.9 + z0.10
         + z0.11 + z0.12 + z0.13 + z0.14 + z0.15 + z0.16 + z0.17 - 936 x3.0
         + z0.0 <= 0
 id9824: z1.0 + z1.2 + z1.3 + z1.4 + z1.5 + z1.6 + z1.7 + z1.8 + z1.9 + z1.10
         + z1.11 + z1.12 + z1.13 + z1.14 + z1.15 + z1.16 + z1.17 - 936 x3.1
         + z1.1 <= 0
 id9828: z2.0 + z2.1 + z2.3 + z2.4 + z2.5 + z2.6 + z2.7 + z2.8 + z2.9 + z2.10
         + z2.11 + z2.12 + z2.13 + z2.14 + z2.15 + z2.16 + z2.17 - 936 x3.2
         + z2.2 <= 0
 id9832: z3.0 + z3.1 + z3.2 + z3.4 + z3.5 + z3.6 + z3.7 + z3.8 + z3.9 + z3.10
         + z3.11 + z3.12 + z3.13 + z3.14 + z3.15 + z3.16 + z3.17 - 936 x3.3
         + z3.3 <= 0
 id9836: z4.0 + z4.1 + z4.2 + z4.3 + z4.5 + z4.6 + z4.7 + z4.8 + z4.9 + z4.10
         + z4.11 + z4.12 + z4.13 + z4.14 + z4.15 + z4.16 + z4.17 - 936 x3.4
         + z4.4 <= 0
 id9840: z5.0 + z5.1 + z5.2 + z5.3 + z5.4 + z5.6 + z5.7 + z5.8 + z5.9 + z5.10
         + z5.11 + z5.12 + z5.13 + z5.14 + z5.15 + z5.16 + z5.17 - 936 x3.5
         + z5.5 <= 0
 id9844: z6.0 + z6.1 + z6.2 + z6.3 + z6.4 + z6.5 + z6.7 + z6.8 + z6.9 + z6.10
         + z6.11 + z6.12 + z6.13 + z6.14 + z6.15 + z6.16 + z6.17 - 936 x3.6
         + z6.6 <= 0
 id9848: z7.0 + z7.1 + z7.2 + z7.3 + z7.4 + z7.5 + z7.6 + z7.8 + z7.9 + z7.10
         + z7.11 + z7.12 + z7.13 + z7.14 + z7.15 + z7.16 + z7.17 - 936 x3.7
         + z7.7 <= 0
 id9852: z8.0 + z8.1 + z8.2 + z8.3 + z8.4 + z8.5 + z8.6 + z8.7 + z8.9 + z8.10
         + z8.11 + z8.12 + z8.13 + z8.14 + z8.15 + z8.16 + z8.17 - 936 x3.8
         + z8.8 <= 0
 id9856: z9.0 + z9.1 + z9.2 + z9.3 + z9.4 + z9.5 + z9.6 + z9.7 + z9.8 + z9.10
         + z9.11 + z9.12 + z9.13 + z9.14 + z9.15 + z9.16 + z9.17 - 936 x3.9
         + z9.9 <= 0
 id9860: z10.0 + z10.1 + z10.2 + z10.3 + z10.4 + z10.5 + z10.6 + z10.7 + z10.8
         + z10.9 + z10.11 + z10.12 + z10.13 + z10.14 + z10.15 + z10.16 + z10.17
         - 936 x3.10 + z10.10 <= 0
 id9864: z11.0 + z11.1 + z11.2 + z11.3 + z11.4 + z11.5 + z11.6 + z11.7 + z11.8
         + z11.9 + z11.10 + z11.12 + z11.13 + z11.14 + z11.15 + z11.16 + z11.17
         - 936 x3.11 + z11.11 <= 0
 id9868: z12.0 + z12.1 + z12.2 + z12.3 + z12.4 + z12.5 + z12.6 + z12.7 + z12.8
         + z12.9 + z12.10 + z12.11 + z12.13 + z12.14 + z12.15 + z12.16 + z12.17
         - 936 x3.12 + z12.12 <= 0
 id9872: z13.0 + z13.1 + z13.2 + z13.3 + z13.4 + z13.5 + z13.6 + z13.7 + z13.8
         + z13.9 + z13.10 + z13.11 + z13.12 + z13.14 + z13.15 + z13.16 + z13.17
         - 936 x3.13 + z13.13 <= 0
 id9876: z14.0 + z14.1 + z14.2 + z14.3 + z14.4 + z14.5 + z14.6 + z14.7 + z14.8
         + z14.9 + z14.10 + z14.11 + z14.12 + z14.13 + z14.15 + z14.16 + z14.17
         - 936 x3.14 + z14.14 <= 0
 id9880: z15.0 + z15.1 + z15.2 + z15.3 + z15.4 + z15.5 + z15.6 + z15.7 + z15.8
         + z15.9 + z15.10 + z15.11 + z15.12 + z15.13 + z15.14 + z15.16 + z15.17
         - 936 x3.15 + z15.15 <= 0
 id9884: z16.0 + z16.1 + z16.2 + z16.3 + z16.4 + z16.5 + z16.6 + z16.7 + z16.8
         + z16.9 + z16.10 + z16.11 + z16.12 + z16.13 + z16.14 + z16.15 + z16.17
         - 936 x3.16 + z16.16 <= 0
 id9888: z17.0 + z17.1 + z17.2 + z17.3 + z17.4 + z17.5 + z17.6 + z17.7 + z17.8
         + z17.9 + z17.10 + z17.11 + z17.12 + z17.13 + z17.14 + z17.15 + z17.16
         - 936 x3.17 + z17.17 <= 0
 id9891: z1.0 + z2.0 + z3.0 + z4.0 + z5.0 + z6.0 + z7.0 + z8.0 + z9.0 + z10.0
         + z11.0 + z12.0 + z13.0 + z14.0 + z15.0 + z16.0 + z17.0 + z0.0  = 63
 id9893: z0.1 + z2.1 + z3.1 + z4.1 + z5.1 + z6.1 + z7.1 + z8.1 + z9.1 + z10.1
         + z11.1 + z12.1 + z13.1 + z14.1 + z15.1 + z16.1 + z17.1 + z1.1  = 29
 id9895: z0.2 + z1.2 + z3.2 + z4.2 + z5.2 + z6.2 + z7.2 + z8.2 + z9.2 + z10.2
         + z11.2 + z12.2 + z13.2 + z14.2 + z15.2 + z16.2 + z17.2 + z2.2  = 71
 id9897: z0.3 + z1.3 + z2.3 + z4.3 + z5.3 + z6.3 + z7.3 + z8.3 + z9.3 + z10.3
         + z11.3 + z12.3 + z13.3 + z14.3 + z15.3 + z16.3 + z17.3 + z3.3  = 94
 id9899: z0.4 + z1.4 + z2.4 + z3.4 + z5.4 + z6.4 + z7.4 + z8.4 + z9.4 + z10.4
         + z11.4 + z12.4 + z13.4 + z14.4 + z15.4 + z16.4 + z17.4 + z4.4  = 74
 id9901: z0.5 + z1.5 + z2.5 + z3.5 + z4.5 + z6.5 + z7.5 + z8.5 + z9.5 + z10.5
         + z11.5 + z12.5 + z13.5 + z14.5 + z15.5 + z16.5 + z17.5 + z5.5  = 50
 id9903: z0.6 + z1.6 + z2.6 + z3.6 + z4.6 + z5.6 + z7.6 + z8.6 + z9.6 + z10.6
         + z11.6 + z12.6 + z13.6 + z14.6 + z15.6 + z16.6 + z17.6 + z6.6  = 9
 id9905: z0.7 + z1.7 + z2.7 + z3.7 + z4.7 + z5.7 + z6.7 + z8.7 + z9.7 + z10.7
         + z11.7 + z12.7 + z13.7 + z14.7 + z15.7 + z16.7 + z17.7 + z7.7  = 83
 id9907: z0.8 + z1.8 + z2.8 + z3.8 + z4.8 + z5.8 + z6.8 + z7.8 + z9.8 + z10.8
         + z11.8 + z12.8 + z13.8 + z14.8 + z15.8 + z16.8 + z17.8 + z8.8  = 75
 id9909: z0.9 + z1.9 + z2.9 + z3.9 + z4.9 + z5.9 + z6.9 + z7.9 + z8.9 + z10.9
         + z11.9 + z12.9 + z13.9 + z14.9 + z15.9 + z16.9 + z17.9 + z9.9  = 81
 id9911: z0.10 + z1.10 + z2.10 + z3.10 + z4.10 + z5.10 + z6.10 + z7.10 + z8.10
         + z9.10 + z11.10 + z12.10 + z13.10 + z14.10 + z15.10 + z16.10 + z17.10
         + z10.10  = 58
 id9913: z0.11 + z1.11 + z2.11 + z3.11 + z4.11 + z5.11 + z6.11 + z7.11 + z8.11
         + z9.11 + z10.11 + z12.11 + z13.11 + z14.11 + z15.11 + z16.11 + z17.11
         + z11.11  = 26
 id9915: z0.12 + z1.12 + z2.12 + z3.12 + z4.12 + z5.12 + z6.12 + z7.12 + z8.12
         + z9.12 + z10.12 + z11.12 + z13.12 + z14.12 + z15.12 + z16.12 + z17.12
         + z12.12  = 23
 id9917: z0.13 + z1.13 + z2.13 + z3.13 + z4.13 + z5.13 + z6.13 + z7.13 + z8.13
         + z9.13 + z10.13 + z11.13 + z12.13 + z14.13 + z15.13 + z16.13 + z17.13
         + z13.13  = 21
 id9919: z0.14 + z1.14 + z2.14 + z3.14 + z4.14 + z5.14 + z6.14 + z7.14 + z8.14
         + z9.14 + z10.14 + z11.14 + z12.14 + z13.14 + z15.14 + z16.14 + z17.14
         + z14.14  = 71
 id9921: z0.15 + z1.15 + z2.15 + z3.15 + z4.15 + z5.15 + z6.15 + z7.15 + z8.15
         + z9.15 + z10.15 + z11.15 + z12.15 + z13.15 + z14.15 + z16.15 + z17.15
         + z15.15  = 9
 id9923: z0.16 + z1.16 + z2.16 + z3.16 + z4.16 + z5.16 + z6.16 + z7.16 + z8.16
         + z9.16 + z10.16 + z11.16 + z12.16 + z13.16 + z14.16 + z15.16 + z17.16
         + z16.16  = 72
 id9925: z0.17 + z1.17 + z2.17 + z3.17 + z4.17 + z5.17 + z6.17 + z7.17 + z8.17
         + z9.17 + z10.17 + z11.17 + z12.17 + z13.17 + z14.17 + z15.17 + z16.17
         + z17.17  = 27
Bounds
      id9807 = 0
 0 <= x0.0 <= 1
 0 <= x0.1 <= 1
 0 <= x0.2 <= 1
 0 <= x0.3 <= 1
 0 <= x0.4 <= 1
 0 <= x0.5 <= 1
 0 <= x0.6 <= 1
 0 <= x0.7 <= 1
 0 <= x0.8 <= 1
 0 <= x0.9 <= 1
 0 <= x0.10 <= 1
 0 <= x0.11 <= 1
 0 <= x0.12 <= 1
 0 <= x0.13 <= 1
 0 <= x0.14 <= 1
 0 <= x0.15 <= 1
 0 <= x0.16 <= 1
 0 <= x0.17 <= 1
 0 <= x1.0 <= 1
 0 <= x1.1 <= 1
 0 <= x1.2 <= 1
 0 <= x1.3 <= 1
 0 <= x1.4 <= 1
 0 <= x1.5 <= 1
 0 <= x1.6 <= 1
 0 <= x1.7 <= 1
 0 <= x1.8 <= 1
 0 <= x1.9 <= 1
 0 <= x1.10 <= 1
 0 <= x1.11 <= 1
 0 <= x1.12 <= 1
 0 <= x1.13 <= 1
 0 <= x1.14 <= 1
 0 <= x1.15 <= 1
 0 <= x1.16 <= 1
 0 <= x1.17 <= 1
 0 <= x2.0 <= 1
 0 <= x2.1 <= 1
 0 <= x2.2 <= 1
 0 <= x2.3 <= 1
 0 <= x2.4 <= 1
 0 <= x2.5 <= 1
 0 <= x2.6 <= 1
 0 <= x2.7 <= 1
 0 <= x2.8 <= 1
 0 <= x2.9 <= 1
 0 <= x2.10 <= 1
 0 <= x2.11 <= 1
 0 <= x2.12 <= 1
 0 <= x2.13 <= 1
 0 <= x2.14 <= 1
 0 <= x2.15 <= 1
 0 <= x2.16 <= 1
 0 <= x2.17 <= 1
 0 <= x3.0 <= 1
 0 <= x3.1 <= 1
 0 <= x3.2 <= 1
 0 <= x3.3 <= 1
 0 <= x3.4 <= 1
 0 <= x3.5 <= 1
 0 <= x3.6 <= 1
 0 <= x3.7 <= 1
 0 <= x3.8 <= 1
 0 <= x3.9 <= 1
 0 <= x3.10 <= 1
 0 <= x3.11 <= 1
 0 <= x3.12 <= 1
 0 <= x3.13 <= 1
 0 <= x3.14 <= 1
 0 <= x3.15 <= 1
 0 <= x3.16 <= 1
 0 <= x3.17 <= 1
 0 <= x4.0 <= 1
 0 <= x4.1 <= 1
 0 <= x4.2 <= 1
 0 <= x4.3 <= 1
 0 <= x4.4 <= 1
 0 <= x4.5 <= 1
 0 <= x4.6 <= 1
 0 <= x4.7 <= 1
 0 <= x4.8 <= 1
 0 <= x4.9 <= 1
 0 <= x4.10 <= 1
 0 <= x4.11 <= 1
 0 <= x4.12 <= 1
 0 <= x4.13 <= 1
 0 <= x4.14 <= 1
 0 <= x4.15 <= 1
 0 <= x4.16 <= 1
 0 <= x4.17 <= 1
Generals
 x0.0  x0.1  x0.2  x0.3  x0.4  x0.5  x0.6  x0.7  x0.8  x0.9  x0.10  x0.11 
 x0.12  x0.13  x0.14  x0.15  x0.16  x0.17  x1.0  x1.1  x1.2  x1.3  x1.4  x1.5 
 x1.6  x1.7  x1.8  x1.9  x1.10  x1.11  x1.12  x1.13  x1.14  x1.15  x1.16 
 x1.17  x2.0  x2.1  x2.2  x2.3  x2.4  x2.5  x2.6  x2.7  x2.8  x2.9  x2.10 
 x2.11  x2.12  x2.13  x2.14  x2.15  x2.16  x2.17  x3.0  x3.1  x3.2  x3.3  x3.4 
 x3.5  x3.6  x3.7  x3.8  x3.9  x3.10  x3.11  x3.12  x3.13  x3.14  x3.15  x3.16 
 x3.17  x4.0  x4.1  x4.2  x4.3  x4.4  x4.5  x4.6  x4.7  x4.8  x4.9  x4.10 
 x4.11  x4.12  x4.13  x4.14  x4.15  x4.16  x4.17 
End
